8
0 61 22 70 15 85 51 55 
61 0 100 75 65 27 100 54 
22 100 0 2 87 53 2 48 
70 75 2 0 65 91 98 42 
15 65 87 65 0 48 13 81 
85 27 53 91 48 0 68 43 
51 100 2 98 13 68 0 92 
55 54 48 42 81 43 92 0 
RBBRRBRB
